p tw 168 568
0 1
0 2
0 3
0 4
0 5
0 6
0 10
0 96
0 97
0 98
1 2
1 3
1 4
1 5
1 6
1 43
1 147
2 3
2 4
2 5
2 6
2 44
3 4
3 5
3 6
3 89
3 90
3 91
3 92
4 5
4 6
4 121
4 134
4 135
5 6
5 42
5 127
6 37
6 38
6 39
6 40
6 41
7 8
7 9
7 10
7 11
7 19
7 151
7 158
8 9
8 10
8 11
8 110
8 122
8 129
8 133
9 10
9 11
9 73
9 82
9 85
9 95
9 105
9 106
10 11
10 96
10 97
10 98
11 16
11 21
11 45
11 46
12 13
12 14
12 15
12 16
12 83
12 150
12 157
13 14
13 15
13 16
13 22
13 29
13 30
14 15
14 16
14 33
14 34
15 16
15 20
15 69
15 70
15 71
15 72
16 21
16 45
16 46
17 18
17 36
17 58
17 59
17 60
17 61
18 144
19 20
19 21
19 22
19 151
19 158
20 21
20 22
20 69
20 70
20 71
20 72
21 22
21 45
21 46
22 29
22 30
23 24
23 25
23 26
23 31
23 37
23 55
23 56
23 57
24 25
24 26
24 65
24 98
24 101
24 106
25 26
25 66
25 99
25 104
26 67
26 97
26 105
27 28
27 62
27 63
27 64
28 87
28 138
29 30
29 45
29 70
29 150
29 151
30 33
30 72
30 83
31 32
31 37
31 55
31 56
31 57
32 41
33 34
33 72
33 83
34 157
35 36
35 131
35 137
36 58
36 59
36 60
36 61
37 38
37 39
37 40
37 41
37 55
37 56
37 57
38 39
38 40
38 41
38 42
38 43
38 44
39 40
39 41
39 147
40 41
40 127
42 43
42 44
42 127
43 44
43 147
45 46
45 70
45 150
45 151
46 61
46 115
46 133
46 137
46 158
46 165
47 48
47 49
47 50
47 51
47 52
47 80
47 136
47 146
47 152
47 153
48 49
48 50
48 51
48 52
48 63
48 90
48 134
48 162
49 50
49 51
49 52
49 62
49 87
49 88
49 89
50 51
50 52
50 92
50 135
50 164
51 52
51 123
52 64
52 138
52 139
53 54
53 148
53 159
54 149
54 160
54 161
55 56
55 57
55 65
55 66
55 67
55 68
56 57
56 99
56 100
56 101
56 102
57 104
57 154
57 155
58 59
58 60
58 61
58 78
59 60
59 61
59 114
59 142
59 143
59 144
59 145
60 61
60 116
60 131
60 132
61 115
61 133
61 137
61 158
61 165
62 63
62 64
62 87
62 88
62 89
63 64
63 90
63 134
63 162
64 138
64 139
65 66
65 67
65 68
65 98
65 101
65 106
66 67
66 68
66 99
66 104
67 68
67 97
67 105
68 100
68 154
68 163
69 70
69 71
69 72
69 73
69 74
69 75
69 76
69 77
70 71
70 72
70 150
70 151
71 72
71 103
72 83
73 74
73 75
73 76
73 77
73 82
73 85
73 95
73 105
73 106
74 75
74 76
74 77
74 84
75 76
75 77
75 93
76 77
76 81
76 86
76 94
77 103
78 115
78 116
79 80
79 140
79 141
80 136
80 146
80 152
80 153
81 82
81 86
81 94
82 85
82 95
82 105
82 106
83 150
83 157
84 85
84 86
85 86
85 95
85 105
85 106
86 94
87 88
87 89
87 138
88 89
88 139
88 162
88 164
89 90
89 91
89 92
90 91
90 92
90 134
90 162
91 92
91 96
91 120
91 121
91 122
92 135
92 164
93 94
93 95
94 95
95 105
95 106
96 97
96 98
96 120
96 121
96 122
97 98
97 105
98 101
98 106
99 100
99 101
99 102
99 104
100 101
100 102
100 154
100 163
101 102
101 106
102 155
102 156
104 154
104 155
105 106
107 108
107 109
107 110
107 111
107 125
107 143
107 159
107 160
108 109
108 110
108 111
108 126
108 128
108 145
108 161
109 110
109 111
109 112
109 113
109 114
110 111
110 122
110 129
110 133
111 118
111 120
111 130
111 141
111 153
111 166
112 113
112 114
112 128
112 129
112 130
113 114
113 124
113 125
113 126
114 142
114 143
114 144
114 145
115 116
115 133
115 137
115 158
115 165
116 131
116 132
117 118
117 119
117 136
118 119
118 120
118 130
118 141
118 153
118 166
119 140
119 152
119 167
120 121
120 122
120 130
120 141
120 153
120 166
121 122
121 134
121 135
122 129
122 133
123 146
124 125
124 126
124 142
124 148
124 149
125 126
125 143
125 159
125 160
126 128
126 145
126 161
128 129
128 130
128 145
128 161
129 130
129 133
130 141
130 153
130 166
131 132
131 137
132 165
133 137
133 158
133 165
134 135
134 162
135 164
136 146
136 152
136 153
137 158
137 165
138 139
139 162
139 164
140 141
140 152
140 167
141 153
141 166
142 143
142 144
142 145
142 148
142 149
143 144
143 145
143 159
143 160
144 145
145 161
146 152
146 153
148 149
148 159
149 160
149 161
150 151
150 157
151 158
152 153
152 167
153 166
154 155
154 163
155 156
156 163
158 165
159 160
160 161
162 164
166 167
